<number of tasks>
89

<cycle time>
17

<task times>
1 1
2 2
3 3
4 4
5 5
6 6
7 7
8 8
9 9
10 10
11 1
12 2
13 3
14 4
15 5
16 6
17 7
18 8
19 9
20 10
21 1
22 2
23 3
24 4
25 5
26 6
27 7
28 8
29 9
30 10
31 1
32 2
33 3
34 4
35 5
36 6
37 7
38 8
39 9
40 10
41 1
42 2
43 3
44 4
45 5
46 6
47 7
48 8
49 9
50 10
51 1
52 2
53 3
54 4
55 5
56 6
57 7
58 8
59 9
60 10
61 1
62 2
63 3
64 4
65 5
66 6
67 7
68 8
69 9
70 10
71 1
72 2
73 3
74 4
75 5
76 6
77 7
78 8
79 9
80 10
81 1
82 2
83 3
84 4
85 5
86 6
87 7
88 8
89 9

<precedence relations>
1,2
2,3
3,4
4,5
4,6
4,7
4,8
4,9
5,10
6,11
7,12
8,18
9,18
10,14
11,12
12,13
13,14
14,15
14,16
15,17
16,54
17,18
18,19
18,20
19,22
20,21
20,28
21,54
22,23
23,24
24,25
25,26
25,27
25,29
26,37
27,33
28,29
29,31
30,54
31,32
32,33
33,34
34,35
35,36
35,37
36,38
37,38
38,39
39,40
39,41
39,42
39,43
40,44
41,53
42,53
43,45
44,52
45,46
46,47
47,48
47,49
49,50
50,51
51,52
52,53
53,68
53,69
53,70
53,71
54,55
55,56
56,57
57,58
57,59
57,60
57,61
57,62
57,63
57,64
57,65
57,66
58,67
59,67
60,67
61,67
62,67
63,67
64,67
65,67
66,67
67,73
68,72
69,72
70,72
71,73
72,78
72,80
73,74
74,75
74,76
75,77
76,81
77,78
78,79
79,81
80,81
81,82
81,84
81,85
82,83
83,86
84,86
85,86
86,87
87,88
87,89

<setup times forward>
4,6:2
4,7:2
4,8:1
4,9:1
5,6:2
5,7:2
5,8:1
5,9:1
5,11:2
5,12:2
6,5:2
6,8:1
6,9:1
6,10:2
6,30:2
7,5:2
7,8:1
7,9:1
7,10:2
7,30:2
8,5:1
8,6:1
8,7:1
8,10:1
8,11:1
8,12:1
8,13:1
8,14:1
8,16:1
8,18:2
8,30:1
9,5:1
9,6:1
9,7:1
9,10:1
9,11:1
9,12:1
9,13:1
9,14:1
9,16:1
9,18:2
9,30:1
10,6:2
10,7:2
10,8:1
10,9:1
10,11:2
10,12:2
11,5:2
11,8:1
11,9:1
11,10:2
11,30:2
12,5:2
12,8:1
12,9:1
12,10:2
12,13:2
12,30:2
13,8:1
13,9:1
14,8:1
14,9:1
14,15:1
15,16:1
15,30:1
16,8:1
16,9:1
16,15:1
16,17:1
16,18:1
16,19:1
16,22:1
16,23:1
16,24:1
16,25:2
16,26:2
16,28:1
16,29:2
16,31:2
16,32:2
16,33:2
16,34:2
16,36:2
16,38:2
16,39:2
16,40:2
16,41:2
16,42:2
16,43:2
16,44:2
16,45:2
16,46:2
16,49:1
16,50:2
16,51:2
16,52:2
16,53:2
16,54:2
16,68:1
16,69:1
16,70:2
16,71:2
16,72:2
17,16:1
17,18:2
17,30:1
18,16:1
18,20:1
18,30:1
19,16:1
19,20:1
19,21:1
19,30:1
19,54:1
19,55:1
19,56:2
19,57:2
19,58:2
19,59:3
19,60:1
19,61:2
19,62:3
19,63:2
19,64:3
19,65:3
19,66:3
19,67:3
20,19:1
20,22:1
20,23:1
20,24:1
20,25:2
20,26:2
20,28:1
21,19:1
21,22:1
21,23:1
21,24:1
21,25:2
21,26:2
21,28:1
21,29:2
21,31:2
21,32:2
21,33:2
21,34:2
21,36:2
21,38:2
21,39:2
21,40:2
21,41:2
21,42:2
21,43:2
21,44:2
21,45:2
21,46:2
21,49:1
21,50:2
21,51:2
21,52:2
21,53:2
21,54:2
21,68:1
21,69:1
21,70:2
21,71:2
21,72:2
22,16:1
22,20:1
22,21:1
22,30:1
22,54:1
22,55:1
22,56:2
22,57:2
22,58:2
22,59:3
22,60:1
22,61:2
22,62:3
22,63:2
22,64:3
22,65:3
22,66:3
22,67:3
23,16:1
23,20:1
23,21:1
23,30:1
23,54:1
23,55:1
23,56:2
23,57:2
23,58:2
23,59:3
23,60:1
23,61:2
23,62:3
23,63:2
23,64:3
23,65:3
23,66:3
23,67:3
24,16:1
24,20:1
24,21:1
24,25:3
24,30:1
24,54:1
24,55:1
24,56:2
24,57:2
24,58:2
24,59:3
24,60:1
24,61:2
24,62:3
24,63:2
24,64:3
24,65:3
24,66:3
24,67:3
25,16:2
25,20:2
25,21:2
25,26:4
25,27:2
25,28:3
25,30:2
25,54:4
25,55:2
25,56:1
25,57:1
25,58:1
25,60:2
25,61:1
25,63:1
26,16:2
26,20:2
26,21:2
26,27:2
26,28:1
26,29:4
26,30:2
26,31:4
26,32:4
26,35:2
26,36:4
26,37:2
26,55:2
26,56:3
26,57:3
26,58:3
26,59:4
26,60:2
26,61:3
26,62:4
26,63:3
26,64:4
26,65:4
26,66:4
26,67:4
27,26:2
27,28:1
27,29:2
27,31:2
27,32:2
27,33:2
27,54:2
27,56:1
27,57:1
27,58:1
27,59:2
27,61:1
27,62:2
27,63:1
27,64:2
27,65:2
27,66:2
27,67:2
28,16:1
28,21:1
28,25:3
28,26:1
28,27:1
28,29:3
28,30:1
28,54:1
28,55:1
28,56:2
28,57:2
28,58:2
28,59:3
28,60:1
28,61:2
28,62:3
28,63:2
28,64:3
28,65:3
28,66:3
28,67:3
29,16:2
29,21:2
29,26:4
29,27:2
29,30:2
29,54:4
29,55:2
29,56:1
29,57:1
29,58:1
29,60:2
29,61:1
29,63:1
30,6:2
30,7:2
30,8:1
30,9:1
30,11:2
30,12:2
30,15:1
30,17:1
30,18:1
30,19:1
30,22:1
30,23:1
30,24:1
30,25:2
30,26:2
30,28:1
30,29:2
30,31:2
30,32:2
30,33:2
30,34:2
30,36:2
30,38:2
30,39:2
30,40:2
30,41:2
30,42:2
30,43:2
30,44:2
30,45:2
30,46:2
30,49:1
30,50:2
30,51:2
30,52:2
30,53:2
30,54:2
30,68:1
30,69:1
30,70:2
30,71:2
30,72:2
31,16:2
31,21:2
31,26:4
31,27:2
31,30:2
31,54:4
31,55:2
31,56:1
31,57:1
31,58:1
31,60:2
31,61:1
31,63:1
32,16:2
32,21:2
32,26:4
32,27:2
32,30:2
32,33:4
32,54:4
32,55:2
32,56:1
32,57:1
32,58:1
32,60:2
32,61:1
32,63:1
33,16:2
33,21:2
33,30:2
33,55:2
33,56:3
33,57:3
33,58:3
33,59:4
33,60:2
33,61:3
33,62:4
33,63:3
33,64:4
33,65:4
33,66:4
33,67:4
34,16:2
34,21:2
34,30:2
34,35:2
34,55:2
34,56:3
34,57:3
34,58:3
34,59:4
34,60:2
34,61:3
34,62:4
34,63:3
34,64:4
34,65:4
34,66:4
34,67:4
35,26:2
35,36:2
35,54:2
35,56:1
35,57:1
35,58:1
35,59:2
35,61:1
35,62:2
35,63:1
35,64:2
35,65:2
35,66:2
35,67:2
36,16:2
36,21:2
36,26:4
36,30:2
36,37:2
36,38:4
36,54:4
36,55:2
36,56:1
36,57:1
36,58:1
36,60:2
36,61:1
36,63:1
37,36:2
37,38:2
37,54:2
37,56:1
37,57:1
37,58:1
37,59:2
37,61:1
37,62:2
37,63:1
37,64:2
37,65:2
37,66:2
37,67:2
38,16:2
38,21:2
38,30:2
38,55:2
38,56:3
38,57:3
38,58:3
38,59:4
38,60:2
38,61:3
38,62:4
38,63:3
38,64:4
38,65:4
38,66:4
38,67:4
39,16:2
39,21:2
39,30:2
39,41:4
39,42:4
39,55:2
39,56:3
39,57:3
39,58:3
39,59:4
39,60:2
39,61:3
39,62:4
39,63:3
39,64:4
39,65:4
39,66:4
39,67:4
40,16:2
40,21:2
40,30:2
40,41:4
40,42:4
40,45:4
40,46:4
40,47:2
40,48:2
40,49:3
40,50:4
40,51:4
40,55:2
40,56:3
40,57:3
40,58:3
40,59:4
40,60:2
40,61:3
40,62:4
40,63:3
40,64:4
40,65:4
40,66:4
40,67:4
41,16:2
41,21:2
41,30:2
41,40:4
41,43:4
41,44:4
41,47:2
41,48:2
41,49:1
41,54:4
41,55:2
41,56:1
41,57:1
41,58:1
41,60:2
41,61:1
41,63:1
42,16:2
42,21:2
42,30:2
42,40:4
42,43:4
42,44:4
42,47:2
42,48:2
42,49:1
42,54:4
42,55:2
42,56:1
42,57:1
42,58:1
42,60:2
42,61:1
42,63:1
43,16:2
43,21:2
43,30:2
43,41:4
43,42:4
43,45:4
43,55:2
43,56:3
43,57:3
43,58:3
43,59:4
43,60:2
43,61:3
43,62:4
43,63:3
43,64:4
43,65:4
43,66:4
43,67:4
44,16:2
44,21:2
44,30:2
44,41:4
44,42:4
44,45:4
44,46:4
44,47:2
44,48:2
44,49:3
44,50:4
44,51:4
44,52:4
44,55:2
44,56:3
44,57:3
44,58:3
44,59:4
44,60:2
44,61:3
44,62:4
44,63:3
44,64:4
44,65:4
44,66:4
44,67:4
45,16:2
45,21:2
45,30:2
45,40:4
45,44:4
45,54:4
45,55:2
45,56:1
45,57:1
45,58:1
45,60:2
45,61:1
45,63:1
46,16:2
46,21:2
46,30:2
46,40:4
46,44:4
46,47:2
46,54:4
46,55:2
46,56:1
46,57:1
46,58:1
46,60:2
46,61:1
46,63:1
47,40:2
47,41:2
47,42:2
47,44:2
47,49:1
47,54:2
47,56:1
47,57:1
47,58:1
47,59:2
47,61:1
47,62:2
47,63:1
47,64:2
47,65:2
47,66:2
47,67:2
48,40:2
48,41:2
48,42:2
48,44:2
48,49:1
48,50:2
48,51:2
48,52:2
48,53:2
48,54:2
48,56:1
48,57:1
48,58:1
48,59:2
48,61:1
48,62:2
48,63:1
48,64:2
48,65:2
48,66:2
48,67:2
48,68:1
48,69:1
48,70:2
48,71:2
48,72:2
48,73:2
48,76:2
48,78:2
48,79:2
48,81:2
48,82:2
48,83:2
48,84:1
48,85:2
48,86:1
48,87:1
48,88:2
48,89:2
49,16:1
49,21:1
49,30:1
49,40:3
49,41:1
49,42:1
49,44:3
49,48:1
49,50:1
49,54:3
49,55:1
49,59:1
49,60:1
49,62:1
49,64:1
49,65:1
49,66:1
49,67:1
50,16:2
50,21:2
50,30:2
50,40:4
50,44:4
50,48:2
50,54:4
50,55:2
50,56:1
50,57:1
50,58:1
50,60:2
50,61:1
50,63:1
51,16:2
51,21:2
51,30:2
51,40:4
51,44:4
51,48:2
51,54:4
51,55:2
51,56:1
51,57:1
51,58:1
51,60:2
51,61:1
51,63:1
52,16:2
52,21:2
52,30:2
52,48:2
52,54:4
52,55:2
52,56:1
52,57:1
52,58:1
52,60:2
52,61:1
52,63:1
53,16:2
53,21:2
53,30:2
53,48:2
53,54:4
53,55:2
53,56:1
53,57:1
53,58:1
53,60:2
53,61:1
53,63:1
53,68:3
53,69:3
54,19:1
54,22:1
54,23:1
54,24:1
54,25:4
54,27:2
54,28:1
54,29:4
54,31:4
54,32:4
54,35:2
54,36:4
54,37:2
54,41:4
54,42:4
54,45:4
54,46:4
54,47:2
54,48:2
54,49:3
54,50:4
54,51:4
54,52:4
54,53:4
54,55:2
54,68:1
54,69:1
54,70:4
54,71:4
54,72:4
54,80:2
55,19:1
55,22:1
55,23:1
55,24:1
55,25:2
55,26:2
55,28:1
55,29:2
55,31:2
55,32:2
55,33:2
55,34:2
55,36:2
55,38:2
55,39:2
55,40:2
55,41:2
55,42:2
55,43:2
55,44:2
55,45:2
55,46:2
55,49:1
55,50:2
55,51:2
55,52:2
55,53:2
55,56:1
55,68:1
55,69:1
55,70:2
55,71:2
55,72:2
56,19:2
56,22:2
56,23:2
56,24:2
56,25:1
56,26:3
56,27:1
56,28:2
56,29:1
56,31:1
56,32:1
56,33:3
56,34:3
56,35:1
56,36:1
56,37:1
56,38:3
56,39:3
56,40:3
56,41:1
56,42:1
56,43:3
56,44:3
56,45:1
56,46:1
56,47:1
56,48:1
56,50:1
56,51:1
56,52:1
56,53:1
56,68:2
56,69:2
56,70:1
56,71:1
56,72:1
56,80:1
57,19:2
57,22:2
57,23:2
57,24:2
57,25:1
57,26:3
57,27:1
57,28:2
57,29:1
57,31:1
57,32:1
57,33:3
57,34:3
57,35:1
57,36:1
57,37:1
57,38:3
57,39:3
57,40:3
57,41:1
57,42:1
57,43:3
57,44:3
57,45:1
57,46:1
57,47:1
57,48:1
57,50:1
57,51:1
57,52:1
57,53:1
57,59:1
57,60:1
57,62:1
57,64:1
57,65:1
57,66:1
57,68:2
57,69:2
57,70:1
57,71:1
57,72:1
57,80:1
58,19:2
58,22:2
58,23:2
58,24:2
58,25:1
58,26:3
58,27:1
58,28:2
58,29:1
58,31:1
58,32:1
58,33:3
58,34:3
58,35:1
58,36:1
58,37:1
58,38:3
58,39:3
58,40:3
58,41:1
58,42:1
58,43:3
58,44:3
58,45:1
58,46:1
58,47:1
58,48:1
58,50:1
58,51:1
58,52:1
58,53:1
58,59:1
58,60:1
58,62:1
58,64:1
58,65:1
58,66:1
58,67:1
58,68:2
58,69:2
58,70:1
58,71:1
58,72:1
58,80:1
59,19:3
59,22:3
59,23:3
59,24:3
59,26:4
59,27:2
59,28:3
59,33:4
59,34:4
59,35:2
59,37:2
59,38:4
59,39:4
59,40:4
59,43:4
59,44:4
59,47:2
59,48:2
59,49:1
59,58:1
59,60:2
59,61:1
59,63:1
59,68:3
59,69:3
59,80:2
60,19:1
60,22:1
60,23:1
60,24:1
60,25:2
60,26:2
60,28:1
60,29:2
60,31:2
60,32:2
60,33:2
60,34:2
60,36:2
60,38:2
60,39:2
60,40:2
60,41:2
60,42:2
60,43:2
60,44:2
60,45:2
60,46:2
60,49:1
60,50:2
60,51:2
60,52:2
60,53:2
60,58:1
60,59:2
60,61:1
60,62:2
60,63:1
60,64:2
60,65:2
60,66:2
60,67:2
60,68:1
60,69:1
60,70:2
60,71:2
60,72:2
61,19:2
61,22:2
61,23:2
61,24:2
61,25:1
61,26:3
61,27:1
61,28:2
61,29:1
61,31:1
61,32:1
61,33:3
61,34:3
61,35:1
61,36:1
61,37:1
61,38:3
61,39:3
61,40:3
61,41:1
61,42:1
61,43:3
61,44:3
61,45:1
61,46:1
61,47:1
61,48:1
61,50:1
61,51:1
61,52:1
61,53:1
61,59:1
61,60:1
61,62:1
61,64:1
61,65:1
61,66:1
61,67:1
61,68:2
61,69:2
61,70:1
61,71:1
61,72:1
61,80:1
62,19:3
62,22:3
62,23:3
62,24:3
62,26:4
62,27:2
62,28:3
62,33:4
62,34:4
62,35:2
62,37:2
62,38:4
62,39:4
62,40:4
62,43:4
62,44:4
62,47:2
62,48:2
62,49:1
62,58:1
62,60:2
62,61:1
62,63:1
62,68:3
62,69:3
62,80:2
63,19:2
63,22:2
63,23:2
63,24:2
63,25:1
63,26:3
63,27:1
63,28:2
63,29:1
63,31:1
63,32:1
63,33:3
63,34:3
63,35:1
63,36:1
63,37:1
63,38:3
63,39:3
63,40:3
63,41:1
63,42:1
63,43:3
63,44:3
63,45:1
63,46:1
63,47:1
63,48:1
63,50:1
63,51:1
63,52:1
63,53:1
63,59:1
63,60:1
63,62:1
63,64:1
63,65:1
63,66:1
63,67:1
63,68:2
63,69:2
63,70:1
63,71:1
63,72:1
63,80:1
64,19:3
64,22:3
64,23:3
64,24:3
64,26:4
64,27:2
64,28:3
64,33:4
64,34:4
64,35:2
64,37:2
64,38:4
64,39:4
64,40:4
64,43:4
64,44:4
64,47:2
64,48:2
64,49:1
64,58:1
64,60:2
64,61:1
64,63:1
64,68:3
64,69:3
64,80:2
65,19:3
65,22:3
65,23:3
65,24:3
65,26:4
65,27:2
65,28:3
65,33:4
65,34:4
65,35:2
65,37:2
65,38:4
65,39:4
65,40:4
65,43:4
65,44:4
65,47:2
65,48:2
65,49:1
65,58:1
65,60:2
65,61:1
65,63:1
65,68:3
65,69:3
65,80:2
66,19:3
66,22:3
66,23:3
66,24:3
66,26:4
66,27:2
66,28:3
66,33:4
66,34:4
66,35:2
66,37:2
66,38:4
66,39:4
66,40:4
66,43:4
66,44:4
66,47:2
66,48:2
66,49:1
66,58:1
66,60:2
66,61:1
66,63:1
66,68:3
66,69:3
66,80:2
67,19:3
67,22:3
67,23:3
67,24:3
67,26:4
67,27:2
67,28:3
67,33:4
67,34:4
67,35:2
67,37:2
67,38:4
67,39:4
67,40:4
67,43:4
67,44:4
67,47:2
67,48:2
67,49:1
67,68:3
67,69:3
67,80:2
68,16:1
68,21:1
68,30:1
68,48:1
68,54:1
68,55:1
68,56:2
68,57:2
68,58:2
68,59:3
68,60:1
68,61:2
68,62:3
68,63:2
68,64:3
68,65:3
68,66:3
68,67:3
68,70:3
68,71:3
68,72:3
68,73:3
68,74:1
68,75:1
68,76:1
68,77:1
69,16:1
69,21:1
69,30:1
69,48:1
69,54:1
69,55:1
69,56:2
69,57:2
69,58:2
69,59:3
69,60:1
69,61:2
69,62:3
69,63:2
69,64:3
69,65:3
69,66:3
69,67:3
69,70:3
69,71:3
69,72:3
69,73:3
69,74:1
69,75:1
69,76:1
69,77:1
70,16:2
70,21:2
70,30:2
70,48:2
70,54:4
70,55:2
70,56:1
70,57:1
70,58:1
70,60:2
70,61:1
70,63:1
70,68:3
70,69:3
70,74:2
70,75:2
70,76:4
70,77:2
71,16:2
71,21:2
71,30:2
71,48:2
71,54:4
71,55:2
71,56:1
71,57:1
71,58:1
71,60:2
71,61:1
71,63:1
71,68:3
71,69:3
71,80:2
72,16:2
72,21:2
72,30:2
72,48:2
72,54:4
72,55:2
72,56:1
72,57:1
72,58:1
72,60:2
72,61:1
72,63:1
72,74:2
72,75:2
72,76:4
72,77:2
72,78:4
72,80:2
73,48:2
73,68:3
73,69:3
73,74:2
73,80:2
74,68:1
74,69:1
74,70:2
74,72:2
74,76:2
75,68:1
75,69:1
75,70:2
75,72:2
75,76:2
76,48:2
76,68:1
76,69:1
76,70:4
76,72:4
76,75:2
76,77:2
76,80:2
77,68:1
77,69:1
77,70:2
77,72:2
77,76:2
77,78:2
78,48:2
78,80:2
79,48:2
79,80:2
80,54:2
80,56:1
80,57:1
80,58:1
80,59:2
80,61:1
80,62:2
80,63:1
80,64:2
80,65:2
80,66:2
80,67:2
80,71:2
80,73:2
80,76:2
80,78:2
80,79:2
80,81:2
81,48:2
81,84:3
82,48:2
82,84:3
83,48:2
83,84:3
83,86:3
84,48:1
84,82:3
84,83:3
84,85:3
85,48:2
85,84:3
85,86:3
86,48:1
87,48:1
87,88:3
87,89:3
88,48:2
89,48:2

<setup times backward>
6,1:2
6,2:2
6,3:2
6,4:2
6,5:2
6,8:1
6,9:1
6,10:2
6,30:2
7,1:2
7,2:2
7,3:2
7,4:2
7,5:2
7,8:1
7,9:1
7,10:2
7,30:2
8,1:1
8,2:1
8,3:1
8,4:1
8,5:1
8,10:1
8,13:1
8,14:1
8,16:1
8,30:1
9,1:1
9,2:1
9,3:1
9,4:1
9,5:1
9,10:1
9,13:1
9,14:1
9,16:1
9,30:1
11,1:2
11,2:2
11,3:2
11,4:2
11,5:2
11,8:1
11,9:1
11,10:2
11,30:2
12,1:2
12,2:2
12,3:2
12,4:2
12,5:2
12,8:1
12,9:1
12,10:2
12,30:2
15,1:1
15,2:1
15,3:1
15,4:1
15,5:1
15,10:1
15,13:1
15,14:1
15,16:1
15,30:1
16,18:1
16,19:1
16,22:1
16,23:1
16,24:1
16,26:2
16,28:1
16,33:2
16,34:2
16,38:2
16,39:2
16,40:2
16,43:2
16,44:2
16,68:1
16,69:1
17,1:1
17,2:1
17,3:1
17,4:1
17,5:1
17,10:1
17,13:1
17,14:1
17,16:1
17,30:1
19,54:1
20,18:1
20,19:1
20,22:1
20,23:1
20,24:1
20,26:2
21,18:1
21,19:1
21,22:1
21,23:1
21,24:1
21,26:2
21,28:1
21,33:2
21,34:2
21,38:2
21,39:2
21,40:2
21,43:2
21,44:2
21,68:1
21,69:1
22,54:1
23,54:1
24,54:1
25,1:2
25,2:2
25,3:2
25,4:2
25,5:2
25,8:1
25,9:1
25,10:2
25,13:2
25,14:2
25,15:1
25,16:2
25,17:1
25,18:3
25,19:3
25,20:2
25,21:2
25,22:3
25,23:3
25,24:3
25,28:3
25,30:2
25,54:4
25,55:2
25,56:1
25,57:1
25,58:1
25,60:2
25,61:1
25,63:1
27,18:1
27,19:1
27,22:1
27,23:1
27,24:1
27,26:2
27,28:1
27,54:2
28,26:1
28,54:1
29,1:2
29,2:2
29,3:2
29,4:2
29,5:2
29,8:1
29,9:1
29,10:2
29,13:2
29,14:2
29,15:1
29,16:2
29,17:1
29,18:3
29,19:3
29,20:2
29,21:2
29,22:3
29,23:3
29,24:3
29,26:4
29,27:2
29,28:3
29,30:2
29,54:4
29,55:2
29,56:1
29,57:1
29,58:1
29,60:2
29,61:1
29,63:1
30,18:1
30,19:1
30,22:1
30,23:1
30,24:1
30,26:2
30,28:1
30,33:2
30,34:2
30,38:2
30,39:2
30,40:2
30,43:2
30,44:2
30,68:1
30,69:1
31,1:2
31,2:2
31,3:2
31,4:2
31,5:2
31,8:1
31,9:1
31,10:2
31,13:2
31,14:2
31,15:1
31,16:2
31,17:1
31,18:3
31,19:3
31,20:2
31,21:2
31,22:3
31,23:3
31,24:3
31,26:4
31,27:2
31,28:3
31,30:2
31,54:4
31,55:2
31,56:1
31,57:1
31,58:1
31,60:2
31,61:1
31,63:1
32,1:2
32,2:2
32,3:2
32,4:2
32,5:2
32,8:1
32,9:1
32,10:2
32,13:2
32,14:2
32,15:1
32,16:2
32,17:1
32,18:3
32,19:3
32,20:2
32,21:2
32,22:3
32,23:3
32,24:3
32,26:4
32,27:2
32,28:3
32,30:2
32,54:4
32,55:2
32,56:1
32,57:1
32,58:1
32,60:2
32,61:1
32,63:1
35,18:1
35,19:1
35,22:1
35,23:1
35,24:1
35,26:2
35,28:1
35,33:2
35,34:2
35,54:2
36,1:2
36,2:2
36,3:2
36,4:2
36,5:2
36,8:1
36,9:1
36,10:2
36,13:2
36,14:2
36,15:1
36,16:2
36,17:1
36,18:3
36,19:3
36,20:2
36,21:2
36,22:3
36,23:3
36,24:3
36,26:4
36,27:2
36,28:3
36,30:2
36,33:4
36,34:4
36,35:2
36,37:2
36,54:4
36,55:2
36,56:1
36,57:1
36,58:1
36,60:2
36,61:1
36,63:1
37,18:1
37,19:1
37,22:1
37,23:1
37,24:1
37,26:2
37,28:1
37,33:2
37,34:2
37,54:2
41,1:2
41,2:2
41,3:2
41,4:2
41,5:2
41,8:1
41,9:1
41,10:2
41,13:2
41,14:2
41,15:1
41,16:2
41,17:1
41,18:3
41,19:3
41,20:2
41,21:2
41,22:3
41,23:3
41,24:3
41,26:4
41,27:2
41,28:3
41,30:2
41,33:4
41,34:4
41,35:2
41,37:2
41,38:4
41,39:4
41,40:4
41,43:4
41,44:4
41,47:2
41,48:2
41,49:1
41,54:4
41,55:2
41,56:1
41,57:1
41,58:1
41,60:2
41,61:1
41,63:1
42,1:2
42,2:2
42,3:2
42,4:2
42,5:2
42,8:1
42,9:1
42,10:2
42,13:2
42,14:2
42,15:1
42,16:2
42,17:1
42,18:3
42,19:3
42,20:2
42,21:2
42,22:3
42,23:3
42,24:3
42,26:4
42,27:2
42,28:3
42,30:2
42,33:4
42,34:4
42,35:2
42,37:2
42,38:4
42,39:4
42,40:4
42,43:4
42,44:4
42,47:2
42,48:2
42,49:1
42,54:4
42,55:2
42,56:1
42,57:1
42,58:1
42,60:2
42,61:1
42,63:1
45,1:2
45,2:2
45,3:2
45,4:2
45,5:2
45,8:1
45,9:1
45,10:2
45,13:2
45,14:2
45,15:1
45,16:2
45,17:1
45,18:3
45,19:3
45,20:2
45,21:2
45,22:3
45,23:3
45,24:3
45,26:4
45,27:2
45,28:3
45,30:2
45,33:4
45,34:4
45,35:2
45,37:2
45,38:4
45,39:4
45,40:4
45,43:4
45,44:4
45,54:4
45,55:2
45,56:1
45,57:1
45,58:1
45,60:2
45,61:1
45,63:1
46,1:2
46,2:2
46,3:2
46,4:2
46,5:2
46,8:1
46,9:1
46,10:2
46,13:2
46,14:2
46,15:1
46,16:2
46,17:1
46,18:3
46,19:3
46,20:2
46,21:2
46,22:3
46,23:3
46,24:3
46,26:4
46,27:2
46,28:3
46,30:2
46,33:4
46,34:4
46,35:2
46,37:2
46,38:4
46,39:4
46,40:4
46,43:4
46,44:4
46,54:4
46,55:2
46,56:1
46,57:1
46,58:1
46,60:2
46,61:1
46,63:1
47,18:1
47,19:1
47,22:1
47,23:1
47,24:1
47,26:2
47,28:1
47,33:2
47,34:2
47,38:2
47,39:2
47,40:2
47,43:2
47,44:2
47,54:2
48,18:1
48,19:1
48,22:1
48,23:1
48,24:1
48,26:2
48,28:1
48,33:2
48,34:2
48,38:2
48,39:2
48,40:2
48,43:2
48,44:2
48,54:2
48,68:1
48,69:1
48,76:2
48,78:2
48,79:2
48,81:2
48,82:2
48,83:2
48,85:2
48,88:2
48,89:2
49,1:1
49,2:1
49,3:1
49,4:1
49,5:1
49,10:1
49,13:1
49,14:1
49,16:1
49,18:2
49,19:2
49,20:1
49,21:1
49,22:2
49,23:2
49,24:2
49,26:3
49,27:1
49,28:2
49,30:1
49,33:3
49,34:3
49,35:1
49,37:1
49,38:3
49,39:3
49,40:3
49,43:3
49,44:3
49,47:1
49,48:1
49,54:3
49,55:1
49,60:1
50,1:2
50,2:2
50,3:2
50,4:2
50,5:2
50,8:1
50,9:1
50,10:2
50,13:2
50,14:2
50,15:1
50,16:2
50,17:1
50,18:3
50,19:3
50,20:2
50,21:2
50,22:3
50,23:3
50,24:3
50,26:4
50,27:2
50,28:3
50,30:2
50,33:4
50,34:4
50,35:2
50,37:2
50,38:4
50,39:4
50,40:4
50,43:4
50,44:4
50,47:2
50,48:2
50,49:1
50,54:4
50,55:2
50,56:1
50,57:1
50,58:1
50,60:2
50,61:1
50,63:1
51,1:2
51,2:2
51,3:2
51,4:2
51,5:2
51,8:1
51,9:1
51,10:2
51,13:2
51,14:2
51,15:1
51,16:2
51,17:1
51,18:3
51,19:3
51,20:2
51,21:2
51,22:3
51,23:3
51,24:3
51,26:4
51,27:2
51,28:3
51,30:2
51,33:4
51,34:4
51,35:2
51,37:2
51,38:4
51,39:4
51,40:4
51,43:4
51,44:4
51,47:2
51,48:2
51,49:1
51,54:4
51,55:2
51,56:1
51,57:1
51,58:1
51,60:2
51,61:1
51,63:1
52,1:2
52,2:2
52,3:2
52,4:2
52,5:2
52,8:1
52,9:1
52,10:2
52,13:2
52,14:2
52,15:1
52,16:2
52,17:1
52,18:3
52,19:3
52,20:2
52,21:2
52,22:3
52,23:3
52,24:3
52,26:4
52,27:2
52,28:3
52,30:2
52,33:4
52,34:4
52,35:2
52,37:2
52,38:4
52,39:4
52,40:4
52,43:4
52,44:4
52,47:2
52,48:2
52,49:1
52,54:4
52,55:2
52,56:1
52,57:1
52,58:1
52,60:2
52,61:1
52,63:1
53,1:2
53,2:2
53,3:2
53,4:2
53,5:2
53,8:1
53,9:1
53,10:2
53,13:2
53,14:2
53,15:1
53,16:2
53,17:1
53,18:3
53,19:3
53,20:2
53,21:2
53,22:3
53,23:3
53,24:3
53,26:4
53,27:2
53,28:3
53,30:2
53,33:4
53,34:4
53,35:2
53,37:2
53,38:4
53,39:4
53,40:4
53,43:4
53,44:4
53,47:2
53,48:2
53,49:1
53,54:4
53,55:2
53,56:1
53,57:1
53,58:1
53,60:2
53,61:1
53,63:1
55,18:1
55,19:1
55,22:1
55,23:1
55,24:1
55,26:2
55,28:1
55,33:2
55,34:2
55,38:2
55,39:2
55,40:2
55,43:2
55,44:2
55,54:2
55,68:1
55,69:1
56,1:1
56,2:1
56,3:1
56,4:1
56,5:1
56,10:1
56,13:1
56,14:1
56,16:1
56,18:2
56,19:2
56,20:1
56,21:1
56,22:2
56,23:2
56,24:2
56,26:3
56,27:1
56,28:2
56,30:1
56,33:3
56,34:3
56,35:1
56,37:1
56,38:3
56,39:3
56,40:3
56,43:3
56,44:3
56,47:1
56,48:1
56,54:3
56,55:1
56,68:2
56,69:2
56,80:1
57,1:1
57,2:1
57,3:1
57,4:1
57,5:1
57,10:1
57,13:1
57,14:1
57,16:1
57,18:2
57,19:2
57,20:1
57,21:1
57,22:2
57,23:2
57,24:2
57,26:3
57,27:1
57,28:2
57,30:1
57,33:3
57,34:3
57,35:1
57,37:1
57,38:3
57,39:3
57,40:3
57,43:3
57,44:3
57,47:1
57,48:1
57,54:3
57,55:1
57,68:2
57,69:2
57,80:1
58,1:1
58,2:1
58,3:1
58,4:1
58,5:1
58,10:1
58,13:1
58,14:1
58,16:1
58,18:2
58,19:2
58,20:1
58,21:1
58,22:2
58,23:2
58,24:2
58,26:3
58,27:1
58,28:2
58,30:1
58,33:3
58,34:3
58,35:1
58,37:1
58,38:3
58,39:3
58,40:3
58,43:3
58,44:3
58,47:1
58,48:1
58,54:3
58,55:1
58,60:1
58,68:2
58,69:2
58,80:1
59,1:2
59,2:2
59,3:2
59,4:2
59,5:2
59,8:1
59,9:1
59,10:2
59,13:2
59,14:2
59,15:1
59,16:2
59,17:1
59,18:3
59,19:3
59,20:2
59,21:2
59,22:3
59,23:3
59,24:3
59,26:4
59,27:2
59,28:3
59,30:2
59,33:4
59,34:4
59,35:2
59,37:2
59,38:4
59,39:4
59,40:4
59,43:4
59,44:4
59,47:2
59,48:2
59,49:1
59,54:4
59,55:2
59,56:1
59,57:1
59,58:1
59,60:2
59,61:1
59,63:1
59,68:3
59,69:3
59,80:2
60,18:1
60,19:1
60,22:1
60,23:1
60,24:1
60,26:2
60,28:1
60,33:2
60,34:2
60,38:2
60,39:2
60,40:2
60,43:2
60,44:2
60,54:2
60,68:1
60,69:1
61,1:1
61,2:1
61,3:1
61,4:1
61,5:1
61,10:1
61,13:1
61,14:1
61,16:1
61,18:2
61,19:2
61,20:1
61,21:1
61,22:2
61,23:2
61,24:2
61,26:3
61,27:1
61,28:2
61,30:1
61,33:3
61,34:3
61,35:1
61,37:1
61,38:3
61,39:3
61,40:3
61,43:3
61,44:3
61,47:1
61,48:1
61,54:3
61,55:1
61,60:1
61,68:2
61,69:2
61,80:1
62,1:2
62,2:2
62,3:2
62,4:2
62,5:2
62,8:1
62,9:1
62,10:2
62,13:2
62,14:2
62,15:1
62,16:2
62,17:1
62,18:3
62,19:3
62,20:2
62,21:2
62,22:3
62,23:3
62,24:3
62,26:4
62,27:2
62,28:3
62,30:2
62,33:4
62,34:4
62,35:2
62,37:2
62,38:4
62,39:4
62,40:4
62,43:4
62,44:4
62,47:2
62,48:2
62,49:1
62,54:4
62,55:2
62,56:1
62,57:1
62,58:1
62,60:2
62,61:1
62,63:1
62,68:3
62,69:3
62,80:2
63,1:1
63,2:1
63,3:1
63,4:1
63,5:1
63,10:1
63,13:1
63,14:1
63,16:1
63,18:2
63,19:2
63,20:1
63,21:1
63,22:2
63,23:2
63,24:2
63,26:3
63,27:1
63,28:2
63,30:1
63,33:3
63,34:3
63,35:1
63,37:1
63,38:3
63,39:3
63,40:3
63,43:3
63,44:3
63,47:1
63,48:1
63,54:3
63,55:1
63,60:1
63,68:2
63,69:2
63,80:1
64,1:2
64,2:2
64,3:2
64,4:2
64,5:2
64,8:1
64,9:1
64,10:2
64,13:2
64,14:2
64,15:1
64,16:2
64,17:1
64,18:3
64,19:3
64,20:2
64,21:2
64,22:3
64,23:3
64,24:3
64,26:4
64,27:2
64,28:3
64,30:2
64,33:4
64,34:4
64,35:2
64,37:2
64,38:4
64,39:4
64,40:4
64,43:4
64,44:4
64,47:2
64,48:2
64,49:1
64,54:4
64,55:2
64,56:1
64,57:1
64,58:1
64,60:2
64,61:1
64,63:1
64,68:3
64,69:3
64,80:2
65,1:2
65,2:2
65,3:2
65,4:2
65,5:2
65,8:1
65,9:1
65,10:2
65,13:2
65,14:2
65,15:1
65,16:2
65,17:1
65,18:3
65,19:3
65,20:2
65,21:2
65,22:3
65,23:3
65,24:3
65,26:4
65,27:2
65,28:3
65,30:2
65,33:4
65,34:4
65,35:2
65,37:2
65,38:4
65,39:4
65,40:4
65,43:4
65,44:4
65,47:2
65,48:2
65,49:1
65,54:4
65,55:2
65,56:1
65,57:1
65,58:1
65,60:2
65,61:1
65,63:1
65,68:3
65,69:3
65,80:2
66,1:2
66,2:2
66,3:2
66,4:2
66,5:2
66,8:1
66,9:1
66,10:2
66,13:2
66,14:2
66,15:1
66,16:2
66,17:1
66,18:3
66,19:3
66,20:2
66,21:2
66,22:3
66,23:3
66,24:3
66,26:4
66,27:2
66,28:3
66,30:2
66,33:4
66,34:4
66,35:2
66,37:2
66,38:4
66,39:4
66,40:4
66,43:4
66,44:4
66,47:2
66,48:2
66,49:1
66,54:4
66,55:2
66,56:1
66,57:1
66,58:1
66,60:2
66,61:1
66,63:1
66,68:3
66,69:3
66,80:2
67,1:2
67,2:2
67,3:2
67,4:2
67,5:2
67,8:1
67,9:1
67,10:2
67,13:2
67,14:2
67,15:1
67,16:2
67,17:1
67,18:3
67,19:3
67,20:2
67,21:2
67,22:3
67,23:3
67,24:3
67,26:4
67,27:2
67,28:3
67,30:2
67,33:4
67,34:4
67,35:2
67,37:2
67,38:4
67,39:4
67,40:4
67,43:4
67,44:4
67,47:2
67,48:2
67,49:1
67,54:4
67,55:2
67,56:1
67,57:1
67,58:1
67,60:2
67,61:1
67,63:1
67,68:3
67,69:3
67,80:2
68,26:1
68,33:1
68,34:1
68,38:1
68,39:1
68,40:1
68,43:1
68,44:1
68,54:1
68,76:1
69,26:1
69,33:1
69,34:1
69,38:1
69,39:1
69,40:1
69,43:1
69,44:1
69,54:1
69,76:1
70,1:2
70,2:2
70,3:2
70,4:2
70,5:2
70,8:1
70,9:1
70,10:2
70,13:2
70,14:2
70,15:1
70,16:2
70,17:1
70,18:3
70,19:3
70,20:2
70,21:2
70,22:3
70,23:3
70,24:3
70,26:4
70,27:2
70,28:3
70,30:2
70,33:4
70,34:4
70,35:2
70,37:2
70,38:4
70,39:4
70,40:4
70,43:4
70,44:4
70,47:2
70,48:2
70,49:1
70,54:4
70,55:2
70,56:1
70,57:1
70,58:1
70,60:2
70,61:1
70,63:1
70,68:3
70,69:3
70,74:2
70,75:2
70,76:4
70,77:2
71,1:2
71,2:2
71,3:2
71,4:2
71,5:2
71,8:1
71,9:1
71,10:2
71,13:2
71,14:2
71,15:1
71,16:2
71,17:1
71,18:3
71,19:3
71,20:2
71,21:2
71,22:3
71,23:3
71,24:3
71,26:4
71,27:2
71,28:3
71,30:2
71,33:4
71,34:4
71,35:2
71,37:2
71,38:4
71,39:4
71,40:4
71,43:4
71,44:4
71,47:2
71,48:2
71,49:1
71,54:4
71,55:2
71,56:1
71,57:1
71,58:1
71,60:2
71,61:1
71,63:1
71,68:3
71,69:3
71,80:2
72,1:2
72,2:2
72,3:2
72,4:2
72,5:2
72,8:1
72,9:1
72,10:2
72,13:2
72,14:2
72,15:1
72,16:2
72,17:1
72,18:3
72,19:3
72,20:2
72,21:2
72,22:3
72,23:3
72,24:3
72,26:4
72,27:2
72,28:3
72,30:2
72,33:4
72,34:4
72,35:2
72,37:2
72,38:4
72,39:4
72,40:4
72,43:4
72,44:4
72,47:2
72,48:2
72,49:1
72,54:4
72,55:2
72,56:1
72,57:1
72,58:1
72,60:2
72,61:1
72,63:1
72,68:3
72,69:3
72,74:2
72,75:2
72,76:4
72,77:2
73,1:2
73,2:2
73,3:2
73,4:2
73,5:2
73,8:1
73,9:1
73,10:2
73,13:2
73,14:2
73,15:1
73,16:2
73,17:1
73,18:3
73,19:3
73,20:2
73,21:2
73,22:3
73,23:3
73,24:3
73,26:4
73,27:2
73,28:3
73,30:2
73,33:4
73,34:4
73,35:2
73,37:2
73,38:4
73,39:4
73,40:4
73,43:4
73,44:4
73,47:2
73,48:2
73,49:1
73,54:4
73,55:2
73,56:1
73,57:1
73,58:1
73,60:2
73,61:1
73,63:1
73,68:3
73,69:3
73,80:2
74,18:1
74,19:1
74,22:1
74,23:1
74,24:1
74,26:2
74,28:1
74,33:2
74,34:2
74,38:2
74,39:2
74,40:2
74,43:2
74,44:2
74,54:2
74,68:1
74,69:1
75,18:1
75,19:1
75,22:1
75,23:1
75,24:1
75,26:2
75,28:1
75,33:2
75,34:2
75,38:2
75,39:2
75,40:2
75,43:2
75,44:2
75,54:2
75,68:1
75,69:1
75,76:2
77,18:1
77,19:1
77,22:1
77,23:1
77,24:1
77,26:2
77,28:1
77,33:2
77,34:2
77,38:2
77,39:2
77,40:2
77,43:2
77,44:2
77,54:2
77,68:1
77,69:1
77,76:2
80,18:1
80,19:1
80,22:1
80,23:1
80,24:1
80,26:2
80,28:1
80,33:2
80,34:2
80,38:2
80,39:2
80,40:2
80,43:2
80,44:2
80,54:2
80,68:1
80,69:1
80,76:2
80,78:2
80,79:2
84,1:1
84,2:1
84,3:1
84,4:1
84,5:1
84,10:1
84,13:1
84,14:1
84,16:1
84,18:2
84,19:2
84,20:1
84,21:1
84,22:2
84,23:2
84,24:2
84,26:3
84,27:1
84,28:2
84,30:1
84,33:3
84,34:3
84,35:1
84,37:1
84,38:3
84,39:3
84,40:3
84,43:3
84,44:3
84,47:1
84,48:1
84,54:3
84,55:1
84,60:1
84,68:2
84,69:2
84,74:1
84,75:1
84,76:3
84,77:1
84,78:3
84,79:3
84,80:1
84,81:3
84,82:3
84,83:3
84,85:3
86,1:1
86,2:1
86,3:1
86,4:1
86,5:1
86,10:1
86,13:1
86,14:1
86,16:1
86,18:2
86,19:2
86,20:1
86,21:1
86,22:2
86,23:2
86,24:2
86,26:3
86,27:1
86,28:2
86,30:1
86,33:3
86,34:3
86,35:1
86,37:1
86,38:3
86,39:3
86,40:3
86,43:3
86,44:3
86,47:1
86,48:1
86,54:3
86,55:1
86,60:1
86,68:2
86,69:2
86,74:1
86,75:1
86,76:3
86,77:1
86,78:3
86,79:3
86,80:1
86,81:3
86,82:3
86,83:3
86,85:3
87,1:1
87,2:1
87,3:1
87,4:1
87,5:1
87,10:1
87,13:1
87,14:1
87,16:1
87,18:2
87,19:2
87,20:1
87,21:1
87,22:2
87,23:2
87,24:2
87,26:3
87,27:1
87,28:2
87,30:1
87,33:3
87,34:3
87,35:1
87,37:1
87,38:3
87,39:3
87,40:3
87,43:3
87,44:3
87,47:1
87,48:1
87,54:3
87,55:1
87,60:1
87,68:2
87,69:2
87,74:1
87,75:1
87,76:3
87,77:1
87,78:3
87,79:3
87,80:1
87,81:3
87,82:3
87,83:3
87,85:3

<end>

<optimal SALBP-1 value>
29


<rand seed>
467321153

<Lower Bounds>
Lm1=29
Lms1=29
Lm2=17
Lm3=22
Lm4=29
Best=29

<Optimal Stations (Iterations: 10)>
40
